(set-info :smt-lib-version 2.6)
(set-logic QF_NIA)
(set-info :source |
Generated by: Cristina Borralleras, Daniel Larraz, Albert Oliveras, Enric Rodriguez-Carbonell, Albert Rubio
Generated on: 2017-04-27
Generator: VeryMax
Application: Termination proving
Target solver: barcelogic
|)
(set-info :license "https://creativecommons.org/licenses/by/4.0/")
(set-info :category "industrial")
(set-info :status sat)
(declare-fun Nl10__const_15^01 () Int)
(declare-fun Nl10__const_5551^01 () Int)
(declare-fun Nl10x0^01 () Int)
(declare-fun Nl10x1^01 () Int)
(declare-fun Nl10x2^01 () Int)
(declare-fun Nl10x3^01 () Int)
(declare-fun Nl10__const_15^02 () Int)
(declare-fun Nl10__const_5551^02 () Int)
(declare-fun Nl10x0^02 () Int)
(declare-fun Nl10x1^02 () Int)
(declare-fun Nl10x2^02 () Int)
(declare-fun Nl10x3^02 () Int)
(declare-fun Nl10__const_15^03 () Int)
(declare-fun Nl10__const_5551^03 () Int)
(declare-fun Nl10x0^03 () Int)
(declare-fun Nl10x1^03 () Int)
(declare-fun Nl10x2^03 () Int)
(declare-fun Nl10x3^03 () Int)
(declare-fun lam0n0 () Int)
(declare-fun lam0n1 () Int)
(declare-fun lam0n2 () Int)
(declare-fun Nl10CT1 () Int)
(declare-fun lam0n3 () Int)
(declare-fun lam0n4 () Int)
(declare-fun lam0n5 () Int)
(declare-fun lam0n6 () Int)
(declare-fun lam1n0 () Int)
(declare-fun lam1n1 () Int)
(declare-fun lam1n2 () Int)
(declare-fun Nl10CT2 () Int)
(declare-fun lam1n3 () Int)
(declare-fun lam1n4 () Int)
(declare-fun lam1n5 () Int)
(declare-fun lam1n6 () Int)
(declare-fun lam2n0 () Int)
(declare-fun lam2n1 () Int)
(declare-fun lam2n2 () Int)
(declare-fun Nl10CT3 () Int)
(declare-fun lam2n3 () Int)
(declare-fun lam2n4 () Int)
(declare-fun lam2n5 () Int)
(declare-fun lam2n6 () Int)
(declare-fun lam3n0 () Int)
(declare-fun lam3n1 () Int)
(declare-fun lam3n2 () Int)
(declare-fun lam3n3 () Int)
(declare-fun lam3n4 () Int)
(declare-fun lam3n5 () Int)
(declare-fun lam3n6 () Int)
(declare-fun lam3n7 () Int)
(declare-fun lam3n8 () Int)
(declare-fun lam3n9 () Int)
(declare-fun lam4n0 () Int)
(declare-fun lam4n1 () Int)
(declare-fun lam4n2 () Int)
(declare-fun lam4n3 () Int)
(declare-fun lam4n4 () Int)
(declare-fun lam4n5 () Int)
(declare-fun lam4n6 () Int)
(declare-fun lam4n7 () Int)
(declare-fun lam4n8 () Int)
(declare-fun lam4n9 () Int)
(declare-fun lam5n0 () Int)
(declare-fun lam5n1 () Int)
(declare-fun lam5n2 () Int)
(declare-fun lam5n3 () Int)
(declare-fun lam5n4 () Int)
(declare-fun lam5n5 () Int)
(declare-fun lam5n6 () Int)
(declare-fun lam5n7 () Int)
(declare-fun lam5n8 () Int)
(declare-fun lam5n9 () Int)
(declare-fun lam6n0 () Int)
(declare-fun lam6n1 () Int)
(declare-fun lam6n2 () Int)
(declare-fun lam6n3 () Int)
(declare-fun lam6n4 () Int)
(declare-fun lam6n5 () Int)
(declare-fun lam6n6 () Int)
(declare-fun lam6n7 () Int)
(declare-fun lam6n8 () Int)
(declare-fun lam6n9 () Int)
(declare-fun lam7n0 () Int)
(declare-fun lam7n1 () Int)
(declare-fun lam7n2 () Int)
(declare-fun lam7n3 () Int)
(declare-fun lam7n4 () Int)
(declare-fun lam7n5 () Int)
(declare-fun lam7n6 () Int)
(declare-fun lam7n7 () Int)
(declare-fun lam7n8 () Int)
(declare-fun lam7n9 () Int)
(declare-fun lam8n0 () Int)
(declare-fun lam8n1 () Int)
(declare-fun lam8n2 () Int)
(declare-fun lam8n3 () Int)
(declare-fun lam8n4 () Int)
(declare-fun lam8n5 () Int)
(declare-fun lam8n6 () Int)
(declare-fun lam8n7 () Int)
(declare-fun lam8n8 () Int)
(declare-fun lam8n9 () Int)
(declare-fun __const_15^0 () Int)
(declare-fun x1^0 () Int)
(declare-fun __const_5551^0 () Int)
(declare-fun undef144 () Int)
(declare-fun x0^0 () Int)
(declare-fun undef232 () Int)
(declare-fun undef240 () Int)
(declare-fun x2^0 () Int)
(declare-fun undef241 () Int)
(declare-fun x3^0 () Int)
(declare-fun undef242 () Int)
(declare-fun undef496 () Int)
(declare-fun undef488 () Int)
(declare-fun undef503 () Int)
(declare-fun undef504 () Int)
(declare-fun undef528 () Int)
(declare-fun undef520 () Int)
(declare-fun undef535 () Int)
(declare-fun undef536 () Int)
(declare-fun lam9n0 () Int)
(declare-fun lam9n9 () Int)
(declare-fun lam9n10 () Int)
(declare-fun lam9n11 () Int)
(declare-fun lam9n1 () Int)
(declare-fun lam9n2 () Int)
(declare-fun lam9n3 () Int)
(declare-fun lam9n4 () Int)
(declare-fun lam9n5 () Int)
(declare-fun lam9n6 () Int)
(declare-fun lam9n7 () Int)
(declare-fun lam9n8 () Int)
(declare-fun lam10n0 () Int)
(declare-fun lam10n9 () Int)
(declare-fun lam10n10 () Int)
(declare-fun lam10n11 () Int)
(declare-fun lam10n1 () Int)
(declare-fun lam10n2 () Int)
(declare-fun lam10n3 () Int)
(declare-fun lam10n4 () Int)
(declare-fun lam10n5 () Int)
(declare-fun lam10n6 () Int)
(declare-fun lam10n7 () Int)
(declare-fun lam10n8 () Int)
(assert ( and ( <= ( - 1 ) Nl10__const_15^01 ) ( <= Nl10__const_15^01 1 ) ( <= ( - 1 ) Nl10__const_5551^01 ) ( <= Nl10__const_5551^01 1 ) ( <= ( - 1 ) Nl10x0^01 ) ( <= Nl10x0^01 1 ) ( <= ( - 1 ) Nl10x1^01 ) ( <= Nl10x1^01 1 ) ( <= ( - 1 ) Nl10x2^01 ) ( <= Nl10x2^01 1 ) ( <= ( - 1 ) Nl10x3^01 ) ( <= Nl10x3^01 1 ) ( <= ( - 1 ) Nl10__const_15^02 ) ( <= Nl10__const_15^02 1 ) ( <= ( - 1 ) Nl10__const_5551^02 ) ( <= Nl10__const_5551^02 1 ) ( <= ( - 1 ) Nl10x0^02 ) ( <= Nl10x0^02 1 ) ( <= ( - 1 ) Nl10x1^02 ) ( <= Nl10x1^02 1 ) ( <= ( - 1 ) Nl10x2^02 ) ( <= Nl10x2^02 1 ) ( <= ( - 1 ) Nl10x3^02 ) ( <= Nl10x3^02 1 ) ( <= ( - 1 ) Nl10__const_15^03 ) ( <= Nl10__const_15^03 1 ) ( <= ( - 1 ) Nl10__const_5551^03 ) ( <= Nl10__const_5551^03 1 ) ( <= ( - 1 ) Nl10x0^03 ) ( <= Nl10x0^03 1 ) ( <= ( - 1 ) Nl10x1^03 ) ( <= Nl10x1^03 1 ) ( <= ( - 1 ) Nl10x2^03 ) ( <= Nl10x2^03 1 ) ( <= ( - 1 ) Nl10x3^03 ) ( <= Nl10x3^03 1 ) ))
(assert ( or ( and ( not ( <= ( + 1 ( * ( - 1 ) __const_15^0 ) x1^0 ) 0 ) ) ( not ( <= ( + ( * ( - 1 ) __const_5551^0 ) x1^0 ) 0 ) ) ( not ( <= ( + ( * ( - 1 ) __const_5551^0 ) undef144 ) 0 ) ) ( = ( + x0^0 ( * ( - 1 ) undef232 ) ) 0 ) ( = ( + x1^0 ( * ( - 1 ) undef240 ) ) 0 ) ( = ( + x2^0 ( * ( - 1 ) undef241 ) ) 0 ) ( = ( + x3^0 ( * ( - 1 ) undef242 ) ) 0 ) ( <= ( + Nl10CT1 ( * ( + 0 Nl10__const_15^01 ) __const_15^0 ) ( * ( + 0 Nl10__const_5551^01 ) __const_5551^0 ) ( * ( + 0 Nl10x0^01 ) x0^0 ) ( * ( + 0 Nl10x1^01 ) x1^0 ) ( * ( + 0 Nl10x2^01 ) x2^0 ) ( * ( + 0 Nl10x3^01 ) x3^0 ) ) 0 ) ( <= ( + Nl10CT2 ( * ( + 0 Nl10__const_15^02 ) __const_15^0 ) ( * ( + 0 Nl10__const_5551^02 ) __const_5551^0 ) ( * ( + 0 Nl10x0^02 ) x0^0 ) ( * ( + 0 Nl10x1^02 ) x1^0 ) ( * ( + 0 Nl10x2^02 ) x2^0 ) ( * ( + 0 Nl10x3^02 ) x3^0 ) ) 0 ) ( <= ( + Nl10CT3 ( * ( + 0 Nl10__const_15^03 ) __const_15^0 ) ( * ( + 0 Nl10__const_5551^03 ) __const_5551^0 ) ( * ( + 0 Nl10x0^03 ) x0^0 ) ( * ( + 0 Nl10x1^03 ) x1^0 ) ( * ( + 0 Nl10x2^03 ) x2^0 ) ( * ( + 0 Nl10x3^03 ) x3^0 ) ) 0 ) ) ( and ( not ( <= ( + 1 ( * ( - 1 ) __const_15^0 ) undef496 ) 0 ) ) ( not ( <= ( + ( * ( - 1 ) __const_5551^0 ) undef144 ) 0 ) ) ( not ( <= ( + ( * ( - 1 ) __const_5551^0 ) undef496 ) 0 ) ) ( <= ( + 2 ( * ( - 1 ) undef496 ) ) 0 ) ( = ( + x0^0 ( * ( - 1 ) undef488 ) ) 0 ) ( = ( + x1^0 ( * ( - 1 ) undef496 ) ) 0 ) ( = ( + ( * ( - 1 ) undef232 ) undef488 ) 0 ) ( = ( + ( * ( - 1 ) undef240 ) undef496 ) 0 ) ( = ( + ( * ( - 1 ) undef241 ) undef503 ) 0 ) ( = ( + ( * ( - 1 ) undef242 ) undef504 ) 0 ) ( <= ( + ( + ( + ( + ( + Nl10CT1 ( * Nl10x0^01 0 ) ) ( * Nl10x1^01 0 ) ) ( * Nl10x2^01 0 ) ) ( * Nl10x3^01 0 ) ) ( * ( + 0 Nl10__const_15^01 ) __const_15^0 ) ( * ( + 0 Nl10__const_5551^01 ) __const_5551^0 ) ( * ( + 0 ( * Nl10x0^01 1 ) ) undef488 ) ( * ( + 0 ( * Nl10x1^01 1 ) ) undef496 ) ( * ( + 0 ( * Nl10x2^01 1 ) ) undef503 ) ( * ( + 0 ( * Nl10x3^01 1 ) ) undef504 ) ) 0 ) ( <= ( + ( + ( + ( + ( + Nl10CT2 ( * Nl10x0^02 0 ) ) ( * Nl10x1^02 0 ) ) ( * Nl10x2^02 0 ) ) ( * Nl10x3^02 0 ) ) ( * ( + 0 Nl10__const_15^02 ) __const_15^0 ) ( * ( + 0 Nl10__const_5551^02 ) __const_5551^0 ) ( * ( + 0 ( * Nl10x0^02 1 ) ) undef488 ) ( * ( + 0 ( * Nl10x1^02 1 ) ) undef496 ) ( * ( + 0 ( * Nl10x2^02 1 ) ) undef503 ) ( * ( + 0 ( * Nl10x3^02 1 ) ) undef504 ) ) 0 ) ( <= ( + ( + ( + ( + ( + Nl10CT3 ( * Nl10x0^03 0 ) ) ( * Nl10x1^03 0 ) ) ( * Nl10x2^03 0 ) ) ( * Nl10x3^03 0 ) ) ( * ( + 0 Nl10__const_15^03 ) __const_15^0 ) ( * ( + 0 Nl10__const_5551^03 ) __const_5551^0 ) ( * ( + 0 ( * Nl10x0^03 1 ) ) undef488 ) ( * ( + 0 ( * Nl10x1^03 1 ) ) undef496 ) ( * ( + 0 ( * Nl10x2^03 1 ) ) undef503 ) ( * ( + 0 ( * Nl10x3^03 1 ) ) undef504 ) ) 0 ) ) ( and ( not ( <= ( + 1 ( * ( - 1 ) __const_15^0 ) undef528 ) 0 ) ) ( <= undef528 0 ) ( not ( <= ( + ( * ( - 1 ) __const_5551^0 ) undef144 ) 0 ) ) ( not ( <= ( + ( * ( - 1 ) __const_5551^0 ) undef528 ) 0 ) ) ( = ( + x0^0 ( * ( - 1 ) undef520 ) ) 0 ) ( = ( + x1^0 ( * ( - 1 ) undef528 ) ) 0 ) ( = ( + ( * ( - 1 ) undef232 ) undef520 ) 0 ) ( = ( + ( * ( - 1 ) undef240 ) undef528 ) 0 ) ( = ( + ( * ( - 1 ) undef241 ) undef535 ) 0 ) ( = ( + ( * ( - 1 ) undef242 ) undef536 ) 0 ) ( <= ( + ( + ( + ( + ( + Nl10CT1 ( * Nl10x0^01 0 ) ) ( * Nl10x1^01 0 ) ) ( * Nl10x2^01 0 ) ) ( * Nl10x3^01 0 ) ) ( * ( + 0 Nl10__const_15^01 ) __const_15^0 ) ( * ( + 0 Nl10__const_5551^01 ) __const_5551^0 ) ( * ( + 0 ( * Nl10x0^01 1 ) ) undef520 ) ( * ( + 0 ( * Nl10x1^01 1 ) ) undef528 ) ( * ( + 0 ( * Nl10x2^01 1 ) ) undef535 ) ( * ( + 0 ( * Nl10x3^01 1 ) ) undef536 ) ) 0 ) ( <= ( + ( + ( + ( + ( + Nl10CT2 ( * Nl10x0^02 0 ) ) ( * Nl10x1^02 0 ) ) ( * Nl10x2^02 0 ) ) ( * Nl10x3^02 0 ) ) ( * ( + 0 Nl10__const_15^02 ) __const_15^0 ) ( * ( + 0 Nl10__const_5551^02 ) __const_5551^0 ) ( * ( + 0 ( * Nl10x0^02 1 ) ) undef520 ) ( * ( + 0 ( * Nl10x1^02 1 ) ) undef528 ) ( * ( + 0 ( * Nl10x2^02 1 ) ) undef535 ) ( * ( + 0 ( * Nl10x3^02 1 ) ) undef536 ) ) 0 ) ( <= ( + ( + ( + ( + ( + Nl10CT3 ( * Nl10x0^03 0 ) ) ( * Nl10x1^03 0 ) ) ( * Nl10x2^03 0 ) ) ( * Nl10x3^03 0 ) ) ( * ( + 0 Nl10__const_15^03 ) __const_15^0 ) ( * ( + 0 Nl10__const_5551^03 ) __const_5551^0 ) ( * ( + 0 ( * Nl10x0^03 1 ) ) undef520 ) ( * ( + 0 ( * Nl10x1^03 1 ) ) undef528 ) ( * ( + 0 ( * Nl10x2^03 1 ) ) undef535 ) ( * ( + 0 ( * Nl10x3^03 1 ) ) undef536 ) ) 0 ) ) ))
(assert ( or ( or ( and ( >= lam9n0 0 ) ( >= lam9n9 0 ) ( >= lam9n10 0 ) ( >= lam9n11 0 ) ( > ( + ( * 1 lam9n0 ) ( * Nl10CT1 lam9n9 ) ( * Nl10CT2 lam9n10 ) ( * Nl10CT3 lam9n11 ) ( - 1 ) ) 0 ) ( = ( + ( * 1 lam9n0 ) ( * Nl10__const_15^01 lam9n9 ) ( * Nl10__const_15^02 lam9n10 ) ( * Nl10__const_15^03 lam9n11 ) ) 0 ) ( = ( + ( * Nl10__const_5551^01 lam9n9 ) ( * Nl10__const_5551^02 lam9n10 ) ( * Nl10__const_5551^03 lam9n11 ) ) 0 ) ( = ( + ( * 1 lam9n1 ) ( * Nl10x0^01 lam9n9 ) ( * Nl10x0^02 lam9n10 ) ( * Nl10x0^03 lam9n11 ) ) 0 ) ( = ( + ( * 1 lam9n2 ) ( * Nl10x1^01 lam9n9 ) ( * Nl10x1^02 lam9n10 ) ( * Nl10x1^03 lam9n11 ) ) 0 ) ( = ( + ( * 1 lam9n3 ) ( * Nl10x2^01 lam9n9 ) ( * Nl10x2^02 lam9n10 ) ( * Nl10x2^03 lam9n11 ) ) 0 ) ( = ( + ( * 1 lam9n4 ) ( * Nl10x3^01 lam9n9 ) ( * Nl10x3^02 lam9n10 ) ( * Nl10x3^03 lam9n11 ) ) 0 ) ( = ( * 1 lam9n5 ) 0 ) ( = ( + ( * ( - 1 ) lam9n0 ) ( * 1 lam9n6 ) ) 0 ) ( = ( * 1 lam9n7 ) 0 ) ( = ( * 1 lam9n8 ) 0 ) ( = ( + ( * ( - 1 ) lam9n1 ) ( * ( - 1 ) lam9n5 ) ) 0 ) ( = ( + ( * ( - 1 ) lam9n2 ) ( * ( - 1 ) lam9n6 ) ) 0 ) ( = ( + ( * ( - 1 ) lam9n3 ) ( * ( - 1 ) lam9n7 ) ) 0 ) ( = ( + ( * ( - 1 ) lam9n4 ) ( * ( - 1 ) lam9n8 ) ) 0 ) ) ( and ( >= lam10n0 0 ) ( >= lam10n9 0 ) ( >= lam10n10 0 ) ( >= lam10n11 0 ) ( > ( + ( * 1 lam10n0 ) ( * Nl10CT1 lam10n9 ) ( * Nl10CT2 lam10n10 ) ( * Nl10CT3 lam10n11 ) 1 ) 0 ) ( = ( + ( * 1 lam10n0 ) ( * Nl10__const_15^01 lam10n9 ) ( * Nl10__const_15^02 lam10n10 ) ( * Nl10__const_15^03 lam10n11 ) ) 0 ) ( = ( + ( * Nl10__const_5551^01 lam10n9 ) ( * Nl10__const_5551^02 lam10n10 ) ( * Nl10__const_5551^03 lam10n11 ) 1 ) 0 ) ( = ( + ( * 1 lam10n1 ) ( * Nl10x0^01 lam10n9 ) ( * Nl10x0^02 lam10n10 ) ( * Nl10x0^03 lam10n11 ) ) 0 ) ( = ( + ( * 1 lam10n2 ) ( * Nl10x1^01 lam10n9 ) ( * Nl10x1^02 lam10n10 ) ( * Nl10x1^03 lam10n11 ) ) 0 ) ( = ( + ( * 1 lam10n3 ) ( * Nl10x2^01 lam10n9 ) ( * Nl10x2^02 lam10n10 ) ( * Nl10x2^03 lam10n11 ) ) 0 ) ( = ( + ( * 1 lam10n4 ) ( * Nl10x3^01 lam10n9 ) ( * Nl10x3^02 lam10n10 ) ( * Nl10x3^03 lam10n11 ) ) 0 ) ( = ( * 1 lam10n5 ) 0 ) ( = ( + ( * ( - 1 ) lam10n0 ) ( * 1 lam10n6 ) ( - 1 ) ) 0 ) ( = ( * 1 lam10n7 ) 0 ) ( = ( * 1 lam10n8 ) 0 ) ( = ( + ( * ( - 1 ) lam10n1 ) ( * ( - 1 ) lam10n5 ) ) 0 ) ( = ( + ( * ( - 1 ) lam10n2 ) ( * ( - 1 ) lam10n6 ) ) 0 ) ( = ( + ( * ( - 1 ) lam10n3 ) ( * ( - 1 ) lam10n7 ) ) 0 ) ( = ( + ( * ( - 1 ) lam10n4 ) ( * ( - 1 ) lam10n8 ) ) 0 ) ) ) ( and ( and ( and ( >= lam0n0 0 ) ( >= lam0n1 0 ) ( >= lam0n2 0 ) ( > ( + ( * 1 lam0n1 ) ( * 1 lam0n2 ) ( - 1 Nl10CT1 ) ) 0 ) ( = ( + ( * 1 lam0n0 ) ( - ( + 0 Nl10__const_15^01 ) ) ) 0 ) ( = ( + ( * 1 lam0n1 ) ( * 1 lam0n2 ) ( - ( + 0 Nl10__const_5551^01 ) ) ) 0 ) ( = ( + ( * 1 lam0n3 ) ( - ( + 0 Nl10x0^01 ) ) ) 0 ) ( = ( + ( * ( - 1 ) lam0n0 ) ( * ( - 1 ) lam0n1 ) ( * 1 lam0n4 ) ( - ( + 0 Nl10x1^01 ) ) ) 0 ) ( = ( + ( * 1 lam0n5 ) ( - ( + 0 Nl10x2^01 ) ) ) 0 ) ( = ( + ( * 1 lam0n6 ) ( - ( + 0 Nl10x3^01 ) ) ) 0 ) ( = ( * ( - 1 ) lam0n2 ) 0 ) ( = ( * ( - 1 ) lam0n3 ) 0 ) ( = ( * ( - 1 ) lam0n4 ) 0 ) ( = ( * ( - 1 ) lam0n5 ) 0 ) ( = ( * ( - 1 ) lam0n6 ) 0 ) ) ( and ( >= lam1n0 0 ) ( >= lam1n1 0 ) ( >= lam1n2 0 ) ( > ( + ( * 1 lam1n1 ) ( * 1 lam1n2 ) ( - 1 Nl10CT2 ) ) 0 ) ( = ( + ( * 1 lam1n0 ) ( - ( + 0 Nl10__const_15^02 ) ) ) 0 ) ( = ( + ( * 1 lam1n1 ) ( * 1 lam1n2 ) ( - ( + 0 Nl10__const_5551^02 ) ) ) 0 ) ( = ( + ( * 1 lam1n3 ) ( - ( + 0 Nl10x0^02 ) ) ) 0 ) ( = ( + ( * ( - 1 ) lam1n0 ) ( * ( - 1 ) lam1n1 ) ( * 1 lam1n4 ) ( - ( + 0 Nl10x1^02 ) ) ) 0 ) ( = ( + ( * 1 lam1n5 ) ( - ( + 0 Nl10x2^02 ) ) ) 0 ) ( = ( + ( * 1 lam1n6 ) ( - ( + 0 Nl10x3^02 ) ) ) 0 ) ( = ( * ( - 1 ) lam1n2 ) 0 ) ( = ( * ( - 1 ) lam1n3 ) 0 ) ( = ( * ( - 1 ) lam1n4 ) 0 ) ( = ( * ( - 1 ) lam1n5 ) 0 ) ( = ( * ( - 1 ) lam1n6 ) 0 ) ) ( and ( >= lam2n0 0 ) ( >= lam2n1 0 ) ( >= lam2n2 0 ) ( > ( + ( * 1 lam2n1 ) ( * 1 lam2n2 ) ( - 1 Nl10CT3 ) ) 0 ) ( = ( + ( * 1 lam2n0 ) ( - ( + 0 Nl10__const_15^03 ) ) ) 0 ) ( = ( + ( * 1 lam2n1 ) ( * 1 lam2n2 ) ( - ( + 0 Nl10__const_5551^03 ) ) ) 0 ) ( = ( + ( * 1 lam2n3 ) ( - ( + 0 Nl10x0^03 ) ) ) 0 ) ( = ( + ( * ( - 1 ) lam2n0 ) ( * ( - 1 ) lam2n1 ) ( * 1 lam2n4 ) ( - ( + 0 Nl10x1^03 ) ) ) 0 ) ( = ( + ( * 1 lam2n5 ) ( - ( + 0 Nl10x2^03 ) ) ) 0 ) ( = ( + ( * 1 lam2n6 ) ( - ( + 0 Nl10x3^03 ) ) ) 0 ) ( = ( * ( - 1 ) lam2n2 ) 0 ) ( = ( * ( - 1 ) lam2n3 ) 0 ) ( = ( * ( - 1 ) lam2n4 ) 0 ) ( = ( * ( - 1 ) lam2n5 ) 0 ) ( = ( * ( - 1 ) lam2n6 ) 0 ) ) ( and ( >= lam3n0 0 ) ( >= lam3n1 0 ) ( >= lam3n2 0 ) ( >= lam3n3 0 ) ( > ( + ( * 1 lam3n1 ) ( * 1 lam3n2 ) ( * 2 lam3n3 ) ( - 1 ( + ( + ( + ( + Nl10CT1 ( * Nl10x0^01 0 ) ) ( * Nl10x1^01 0 ) ) ( * Nl10x2^01 0 ) ) ( * Nl10x3^01 0 ) ) ) ) 0 ) ( = ( + ( * 1 lam3n0 ) ( - ( + 0 Nl10__const_15^01 ) ) ) 0 ) ( = ( + ( * 1 lam3n1 ) ( * 1 lam3n2 ) ( - ( + 0 Nl10__const_5551^01 ) ) ) 0 ) ( = ( * 1 lam3n4 ) 0 ) ( = ( * 1 lam3n5 ) 0 ) ( = ( * ( - 1 ) lam3n1 ) 0 ) ( = ( * 1 lam3n6 ) 0 ) ( = ( * 1 lam3n7 ) 0 ) ( = ( * 1 lam3n8 ) 0 ) ( = ( * 1 lam3n9 ) 0 ) ( = ( + ( * ( - 1 ) lam3n4 ) ( * ( - 1 ) lam3n6 ) ( - ( + 0 ( * Nl10x0^01 1 ) ) ) ) 0 ) ( = ( + ( * ( - 1 ) lam3n0 ) ( * ( - 1 ) lam3n2 ) ( * ( - 1 ) lam3n3 ) ( * ( - 1 ) lam3n5 ) ( * ( - 1 ) lam3n7 ) ( - ( + 0 ( * Nl10x1^01 1 ) ) ) ) 0 ) ( = ( + ( * ( - 1 ) lam3n8 ) ( - ( + 0 ( * Nl10x2^01 1 ) ) ) ) 0 ) ( = ( + ( * ( - 1 ) lam3n9 ) ( - ( + 0 ( * Nl10x3^01 1 ) ) ) ) 0 ) ) ( and ( >= lam4n0 0 ) ( >= lam4n1 0 ) ( >= lam4n2 0 ) ( >= lam4n3 0 ) ( > ( + ( * 1 lam4n1 ) ( * 1 lam4n2 ) ( * 2 lam4n3 ) ( - 1 ( + ( + ( + ( + Nl10CT2 ( * Nl10x0^02 0 ) ) ( * Nl10x1^02 0 ) ) ( * Nl10x2^02 0 ) ) ( * Nl10x3^02 0 ) ) ) ) 0 ) ( = ( + ( * 1 lam4n0 ) ( - ( + 0 Nl10__const_15^02 ) ) ) 0 ) ( = ( + ( * 1 lam4n1 ) ( * 1 lam4n2 ) ( - ( + 0 Nl10__const_5551^02 ) ) ) 0 ) ( = ( * 1 lam4n4 ) 0 ) ( = ( * 1 lam4n5 ) 0 ) ( = ( * ( - 1 ) lam4n1 ) 0 ) ( = ( * 1 lam4n6 ) 0 ) ( = ( * 1 lam4n7 ) 0 ) ( = ( * 1 lam4n8 ) 0 ) ( = ( * 1 lam4n9 ) 0 ) ( = ( + ( * ( - 1 ) lam4n4 ) ( * ( - 1 ) lam4n6 ) ( - ( + 0 ( * Nl10x0^02 1 ) ) ) ) 0 ) ( = ( + ( * ( - 1 ) lam4n0 ) ( * ( - 1 ) lam4n2 ) ( * ( - 1 ) lam4n3 ) ( * ( - 1 ) lam4n5 ) ( * ( - 1 ) lam4n7 ) ( - ( + 0 ( * Nl10x1^02 1 ) ) ) ) 0 ) ( = ( + ( * ( - 1 ) lam4n8 ) ( - ( + 0 ( * Nl10x2^02 1 ) ) ) ) 0 ) ( = ( + ( * ( - 1 ) lam4n9 ) ( - ( + 0 ( * Nl10x3^02 1 ) ) ) ) 0 ) ) ( and ( >= lam5n0 0 ) ( >= lam5n1 0 ) ( >= lam5n2 0 ) ( >= lam5n3 0 ) ( > ( + ( * 1 lam5n1 ) ( * 1 lam5n2 ) ( * 2 lam5n3 ) ( - 1 ( + ( + ( + ( + Nl10CT3 ( * Nl10x0^03 0 ) ) ( * Nl10x1^03 0 ) ) ( * Nl10x2^03 0 ) ) ( * Nl10x3^03 0 ) ) ) ) 0 ) ( = ( + ( * 1 lam5n0 ) ( - ( + 0 Nl10__const_15^03 ) ) ) 0 ) ( = ( + ( * 1 lam5n1 ) ( * 1 lam5n2 ) ( - ( + 0 Nl10__const_5551^03 ) ) ) 0 ) ( = ( * 1 lam5n4 ) 0 ) ( = ( * 1 lam5n5 ) 0 ) ( = ( * ( - 1 ) lam5n1 ) 0 ) ( = ( * 1 lam5n6 ) 0 ) ( = ( * 1 lam5n7 ) 0 ) ( = ( * 1 lam5n8 ) 0 ) ( = ( * 1 lam5n9 ) 0 ) ( = ( + ( * ( - 1 ) lam5n4 ) ( * ( - 1 ) lam5n6 ) ( - ( + 0 ( * Nl10x0^03 1 ) ) ) ) 0 ) ( = ( + ( * ( - 1 ) lam5n0 ) ( * ( - 1 ) lam5n2 ) ( * ( - 1 ) lam5n3 ) ( * ( - 1 ) lam5n5 ) ( * ( - 1 ) lam5n7 ) ( - ( + 0 ( * Nl10x1^03 1 ) ) ) ) 0 ) ( = ( + ( * ( - 1 ) lam5n8 ) ( - ( + 0 ( * Nl10x2^03 1 ) ) ) ) 0 ) ( = ( + ( * ( - 1 ) lam5n9 ) ( - ( + 0 ( * Nl10x3^03 1 ) ) ) ) 0 ) ) ( and ( >= lam6n0 0 ) ( >= lam6n1 0 ) ( >= lam6n2 0 ) ( >= lam6n3 0 ) ( > ( + ( * 1 lam6n2 ) ( * 1 lam6n3 ) ( - 1 ( + ( + ( + ( + Nl10CT1 ( * Nl10x0^01 0 ) ) ( * Nl10x1^01 0 ) ) ( * Nl10x2^01 0 ) ) ( * Nl10x3^01 0 ) ) ) ) 0 ) ( = ( + ( * 1 lam6n0 ) ( - ( + 0 Nl10__const_15^01 ) ) ) 0 ) ( = ( + ( * 1 lam6n2 ) ( * 1 lam6n3 ) ( - ( + 0 Nl10__const_5551^01 ) ) ) 0 ) ( = ( * 1 lam6n4 ) 0 ) ( = ( * 1 lam6n5 ) 0 ) ( = ( * ( - 1 ) lam6n2 ) 0 ) ( = ( * 1 lam6n6 ) 0 ) ( = ( * 1 lam6n7 ) 0 ) ( = ( * 1 lam6n8 ) 0 ) ( = ( * 1 lam6n9 ) 0 ) ( = ( + ( * ( - 1 ) lam6n4 ) ( * ( - 1 ) lam6n6 ) ( - ( + 0 ( * Nl10x0^01 1 ) ) ) ) 0 ) ( = ( + ( * ( - 1 ) lam6n0 ) ( * 1 lam6n1 ) ( * ( - 1 ) lam6n3 ) ( * ( - 1 ) lam6n5 ) ( * ( - 1 ) lam6n7 ) ( - ( + 0 ( * Nl10x1^01 1 ) ) ) ) 0 ) ( = ( + ( * ( - 1 ) lam6n8 ) ( - ( + 0 ( * Nl10x2^01 1 ) ) ) ) 0 ) ( = ( + ( * ( - 1 ) lam6n9 ) ( - ( + 0 ( * Nl10x3^01 1 ) ) ) ) 0 ) ) ( and ( >= lam7n0 0 ) ( >= lam7n1 0 ) ( >= lam7n2 0 ) ( >= lam7n3 0 ) ( > ( + ( * 1 lam7n2 ) ( * 1 lam7n3 ) ( - 1 ( + ( + ( + ( + Nl10CT2 ( * Nl10x0^02 0 ) ) ( * Nl10x1^02 0 ) ) ( * Nl10x2^02 0 ) ) ( * Nl10x3^02 0 ) ) ) ) 0 ) ( = ( + ( * 1 lam7n0 ) ( - ( + 0 Nl10__const_15^02 ) ) ) 0 ) ( = ( + ( * 1 lam7n2 ) ( * 1 lam7n3 ) ( - ( + 0 Nl10__const_5551^02 ) ) ) 0 ) ( = ( * 1 lam7n4 ) 0 ) ( = ( * 1 lam7n5 ) 0 ) ( = ( * ( - 1 ) lam7n2 ) 0 ) ( = ( * 1 lam7n6 ) 0 ) ( = ( * 1 lam7n7 ) 0 ) ( = ( * 1 lam7n8 ) 0 ) ( = ( * 1 lam7n9 ) 0 ) ( = ( + ( * ( - 1 ) lam7n4 ) ( * ( - 1 ) lam7n6 ) ( - ( + 0 ( * Nl10x0^02 1 ) ) ) ) 0 ) ( = ( + ( * ( - 1 ) lam7n0 ) ( * 1 lam7n1 ) ( * ( - 1 ) lam7n3 ) ( * ( - 1 ) lam7n5 ) ( * ( - 1 ) lam7n7 ) ( - ( + 0 ( * Nl10x1^02 1 ) ) ) ) 0 ) ( = ( + ( * ( - 1 ) lam7n8 ) ( - ( + 0 ( * Nl10x2^02 1 ) ) ) ) 0 ) ( = ( + ( * ( - 1 ) lam7n9 ) ( - ( + 0 ( * Nl10x3^02 1 ) ) ) ) 0 ) ) ( and ( >= lam8n0 0 ) ( >= lam8n1 0 ) ( >= lam8n2 0 ) ( >= lam8n3 0 ) ( > ( + ( * 1 lam8n2 ) ( * 1 lam8n3 ) ( - 1 ( + ( + ( + ( + Nl10CT3 ( * Nl10x0^03 0 ) ) ( * Nl10x1^03 0 ) ) ( * Nl10x2^03 0 ) ) ( * Nl10x3^03 0 ) ) ) ) 0 ) ( = ( + ( * 1 lam8n0 ) ( - ( + 0 Nl10__const_15^03 ) ) ) 0 ) ( = ( + ( * 1 lam8n2 ) ( * 1 lam8n3 ) ( - ( + 0 Nl10__const_5551^03 ) ) ) 0 ) ( = ( * 1 lam8n4 ) 0 ) ( = ( * 1 lam8n5 ) 0 ) ( = ( * ( - 1 ) lam8n2 ) 0 ) ( = ( * 1 lam8n6 ) 0 ) ( = ( * 1 lam8n7 ) 0 ) ( = ( * 1 lam8n8 ) 0 ) ( = ( * 1 lam8n9 ) 0 ) ( = ( + ( * ( - 1 ) lam8n4 ) ( * ( - 1 ) lam8n6 ) ( - ( + 0 ( * Nl10x0^03 1 ) ) ) ) 0 ) ( = ( + ( * ( - 1 ) lam8n0 ) ( * 1 lam8n1 ) ( * ( - 1 ) lam8n3 ) ( * ( - 1 ) lam8n5 ) ( * ( - 1 ) lam8n7 ) ( - ( + 0 ( * Nl10x1^03 1 ) ) ) ) 0 ) ( = ( + ( * ( - 1 ) lam8n8 ) ( - ( + 0 ( * Nl10x2^03 1 ) ) ) ) 0 ) ( = ( + ( * ( - 1 ) lam8n9 ) ( - ( + 0 ( * Nl10x3^03 1 ) ) ) ) 0 ) ) ) false ) ))
(check-sat)
(exit)
